4
Properties=species:S:1:pos:R:3:initial_charges:R:1:bond-order:R:4 connectivity="_JSON [[0, 1, 0.9921482083320092], [0, 2, 0.0009131069931499931], [0, 3, 0.005290344801091592], [1, 2, 0.00030093480259072445], [1, 3, 0.013098641065197838], [2, 3, 0.8133477785872678]]" id=rxn_03-r verified=F pbc="F F F"
H       -2.30939685      -0.01441821       0.04797459       0.00000000       0.99291035       0.99214821       0.00091311       0.00529034
H       -1.58013671      -0.14365419      -0.01467050       0.00000000       0.99214821       1.00953006       0.00030093       0.01309864
H        0.76480876       0.93600005      -0.01035279       0.00000000       0.00091311       0.00030093       0.44122372       0.81334778
O        0.92170292      -0.03657637      -0.11307239       0.00000000       0.00529034       0.01309864       0.81334778      15.90613784
4
Properties=species:S:1:pos:R:3:initial_charges:R:1:bond-order:R:4:forces:R:3 connectivity="_JSON [[0, 1, 0.9921482083320092], [0, 2, 0.0009131069931499931], [0, 3, 0.005290344801091592], [1, 2, 0.00030093480259072445], [1, 3, 0.013098641065197838], [2, 3, 0.8133477785872678]]" id=rxn_03-r verified=F energy=0.4792827922969638 pbc="F F F"
H       -2.30939685      -0.01441821       0.04797459       0.00000000       0.99291035       0.99214821       0.00091311       0.00529034      -0.00647464      -0.00033332      -0.00003870
H       -1.58013671      -0.14365419      -0.01467050       0.00000000       0.99214821       1.00953006       0.00030093       0.01309864       0.05426956       0.00205735      -0.00174474
H        0.76480876       0.93600005      -0.01035279       0.00000000       0.00091311       0.00030093       0.44122372       0.81334778       0.00326689      -0.00816226      -0.00089216
O        0.92170292      -0.03657637      -0.11307239       0.00000000       0.00529034       0.01309864       0.81334778      15.90613784      -0.05118635       0.00642386       0.00271337
4
Properties=species:S:1:pos:R:3:initial_charges:R:1:bond-order:R:4:forces:R:3 connectivity="_JSON [[0, 1, 0.984809548836098], [0, 2, 0.0017285331609224574], [0, 3, 0.010397962717123397], [1, 2, 0.0005488634211139244], [1, 3, 0.021572379168888198], [2, 3, 0.8127217713965026]]" id=rxn_03-r verified=F energy=-2091.362242578306 pbc="F F F"
H       -2.19793232       0.05983800       0.02225421       0.00000000       1.04095385       0.98480955       0.00172853       0.01039796      -0.00706717      -0.00809539      -0.00793426
H       -1.56184602      -0.32276263      -0.03401445       0.00000000       0.98480955       0.96061704       0.00054886       0.02157238       0.00356138       0.01280769       0.01118792
H        0.75194270       0.91791302       0.08861417       0.00000000       0.00172853       0.00054886       0.43992158       0.81272177      -0.00462695       0.00987725       0.00684804
O        0.68796227      -0.03907387      -0.15487294       0.00000000       0.01039796       0.02157238       0.81272177      15.89494942       0.00805289      -0.01398634      -0.00989442
