4
Properties=species:S:1:pos:R:3:initial_charges:R:1:bond-order:R:4:forces:R:3 connectivity="_JSON [[0, 1, 0.985608053871449], [0, 2, 0.0010513158842890614], [0, 3, 0.007975287398337997], [1, 2, 0.0003385985377784584], [1, 3, 0.029999706067697918], [2, 3, 0.8114090461326577]]" id=rxn_03-r verified=F energy=-2091.3847828238895 pbc="F F F"
H       -2.30939685      -0.01441821       0.04797459       0.00000000       1.05677217       0.98560805       0.00105132       0.00797529      -0.00650477       0.00296055      -0.00229227
H       -1.58013671      -0.14365419      -0.01467050       0.00000000       0.98560805       0.96987425       0.00033860       0.02999971       0.00141370      -0.00462856       0.00317421
H        0.76480876       0.93600005      -0.01035279       0.00000000       0.00105132       0.00033860       0.43741057       0.81140905       0.00443928      -0.00534485      -0.00012376
O        0.92170292      -0.03657637      -0.11307239       0.00000000       0.00797529       0.02999971       0.81140905      15.86317900       0.00162094       0.00786097      -0.00096453
4
Properties=species:S:1:pos:R:3:initial_charges:R:1:bond-order:R:4:forces:R:3 connectivity="_JSON [[0, 1, 0.5433257971129718], [0, 2, 0.00606756917147115], [0, 3, 0.17791580974216228], [1, 3, 0.40202562475569464], [2, 3, 0.8214837883343451]]" id=rxn_03-ts verified=F energy=-2091.060609613377 pbc="F F F"
H       -1.86568133       0.09800415       0.02340283       0.00000000       1.27865230       0.54332580       0.00606757       0.17791581      -0.00228223       0.00055518       0.00153663
H       -0.99566193      -0.13121621      -0.02044640       0.00000000       0.54332580       0.67620617      -0.00292660       0.40202562       0.00002722      -0.00207990      -0.00291474
H        0.43289786       0.86200655      -0.02884177       0.00000000       0.00606757      -0.00292660       0.44246711       0.82148379       0.00024459      -0.00950057      -0.00167236
O        0.21035879      -0.09565888      -0.06952081       0.00000000       0.17791581       0.40202562       0.82148379      15.70689043       0.00376179       0.01086749       0.00195310
4
Properties=species:S:1:pos:R:3:initial_charges:R:1:bond-order:R:4:forces:R:3 connectivity="_JSON [[0, 1, 0.0010634823971251248], [0, 2, 9.387859167729388e-05], [0, 3, 1.0309478931800965e-05], [1, 2, 0.0048245088838329], [1, 3, 0.81705732032683], [2, 3, 0.8174553810160584]]" id=rxn_03-p verified=F energy=-2091.5824946633943 pbc="F F F"
H       -3.47255177       0.44110142       0.09771999       0.00000000       1.99777251       0.00106348       0.00009388       0.00001031      -0.00060429      -0.00009058       0.00011066
H       -0.07542384      -0.54677295      -0.07667392       0.00000000       0.00106348       0.43305450       0.00482451       0.81705732       0.00252136       0.00027627      -0.00018440
H        0.56793747       0.89656788      -0.02781155       0.00000000       0.00009388       0.00482451       0.43354989       0.81745538       0.00215229      -0.00729915      -0.00077991
O        0.75789758      -0.05196982      -0.09073809       0.00000000       0.00001031       0.81705732       0.81745538      15.85461333      -0.00427927       0.00613532       0.00057165
