4
Properties=species:S:1:pos:R:3:initial_charges:R:1:bond-order:R:4:masses:R:1 connectivity="_JSON [[0, 1, 0.543327044600553], [0, 2, 0.006067681445739399], [0, 3, 0.17791614245408482], [1, 3, 0.402024738667477], [2, 3, 0.8214845875475945]]" pbc="F F F"
H       -1.86568133       0.09800415       0.02340283       0.00000000       1.27865354       0.54332704       0.00606768       0.17791614       1.00782503
H       -0.99566193      -0.13121621      -0.02044640       0.00000000       0.54332704       0.67620733      -0.00292665       0.40202474       1.00782503
H        0.43289786       0.86200655      -0.02884177       0.00000000       0.00606768      -0.00292665       0.44246894       0.82148459       1.00782503
O        0.21035879      -0.09565888      -0.06952081       0.00000000       0.17791614       0.40202474       0.82148459      15.70688310      15.99491462
4
Properties=species:S:1:pos:R:3:initial_charges:R:1:bond-order:R:4:forces:R:3 connectivity="_JSON [[0, 1, 0.5433257971129718], [0, 2, 0.00606756917147115], [0, 3, 0.17791580974216228], [1, 3, 0.40202562475569464], [2, 3, 0.8214837883343451]]" energy=-2091.060609613377 pbc="F F F"
H       -1.86568133       0.09800415       0.02340283       0.00000000       1.27865230       0.54332580       0.00606757       0.17791581      -0.00228223       0.00055518       0.00153663
H       -0.99566193      -0.13121621      -0.02044640       0.00000000       0.54332580       0.67620617      -0.00292660       0.40202562       0.00002722      -0.00207990      -0.00291474
H        0.43289786       0.86200655      -0.02884177       0.00000000       0.00606757      -0.00292660       0.44246711       0.82148379       0.00024459      -0.00950057      -0.00167236
O        0.21035879      -0.09565888      -0.06952081       0.00000000       0.17791581       0.40202562       0.82148379      15.70689043       0.00376179       0.01086749       0.00195310
4
Properties=species:S:1:pos:R:3:initial_charges:R:1:bond-order:R:4:masses:R:1 connectivity="_JSON [[0, 1, 0.543327044600553], [0, 2, 0.006067681445739399], [0, 3, 0.17791614245408482], [1, 3, 0.402024738667477], [2, 3, 0.8214845875475945]]" pbc="F F F"
H       -1.86568133       0.09800415       0.02340283       0.00000000       1.27865354       0.54332704       0.00606768       0.17791614       1.00782503
H       -0.99566193      -0.13121621      -0.02044640       0.00000000       0.54332704       0.67620733      -0.00292665       0.40202474       1.00782503
H        0.43289786       0.86200655      -0.02884177       0.00000000       0.00606768      -0.00292665       0.44246894       0.82148459       1.00782503
O        0.21035879      -0.09565888      -0.06952081       0.00000000       0.17791614       0.40202474       0.82148459      15.70688310      15.99491462
