3
Properties=species:S:1:pos:R:3:initial_charges:R:1:bond-order:R:3:forces:R:3 connectivity="_JSON [[0, 1, 1.2754522423733536], [0, 2, 0.040002787824713434]]" id=rxn_01-r verified=F energy=-4093.336564267148 pbc="F F F"
O        0.48020082       0.00004288      -0.00001204       0.00000000      14.57404176       1.27545224       0.04000279     -30.41026148      -0.00576175       0.00874656
O       -0.51656372      -0.00035206       0.00008800       0.00000000       1.27545224      14.41535950      -0.04763254      30.23217554       0.00303904      -0.01130210
H       -1.53689402      -0.00101565      -0.00007487       0.00000000       0.04000279      -0.04763254       2.47495375       0.17735182       0.00272121       0.00255191
3
Properties=species:S:1:pos:R:3:initial_charges:R:1:bond-order:R:3:forces:R:3 connectivity="_JSON [[0, 1, 1.4704092708994356], [0, 2, 0.1150902156709226], [1, 2, 0.13257082292446665]]" id=rxn_01-ts verified=F energy=-4098.775726622469 pbc="F F F"
O        0.60558366      -0.02156083       0.10297596       0.00000000      14.28602891       1.47040927       0.11509022       7.46287082      -0.36833010       0.80071409
O       -0.56931312       0.06068931      -0.05893294       0.00000000       1.47040927      14.43953469       0.13257082      -1.59528503       0.53942731      -0.74141029
H       -1.70847226      -0.03203010       0.02011420       0.00000000       0.11509022       0.13257082       1.83829578      -5.86212437      -0.17160639      -0.05859478
3
Properties=species:S:1:pos:R:3:initial_charges:R:1:bond-order:R:3:forces:R:3 connectivity="_JSON [[0, 1, 1.7501208673394297], [0, 2, 0.000933518959559616], [1, 2, 0.0035418238430409608]]" id=rxn_01-p verified=F energy=-4101.352893101132 pbc="F F F"
O        1.21906304       0.00039625       0.00000000       0.00000000      14.24830749       1.75012087       0.00093352      -0.90802303      -0.00041870      -0.00000000
O       -0.04503362      -0.00018887      -0.00000000       0.00000000       1.75012087      14.24762011       0.00354182       1.01845177       0.00047167       0.00000000
H       -2.74493529      -0.00152956       0.00000000       0.00000000       0.00093352       0.00354182       1.99487999      -0.11015764      -0.00005534       0.00000000
