3
Properties=species:S:1:pos:R:3:initial_charges:R:1:bond-order:R:3 connectivity="_JSON [[0, 1, 1.2753776370830778], [0, 2, 0.04000729482113625]]" id=rxn_01-r verified=F pbc="F F F"
O        0.48020082       0.00004288      -0.00001204       0.00000000      14.57407241       1.27537764       0.04000729
O       -0.51656372      -0.00035206       0.00008800       0.00000000       1.27537764      14.41549950      -0.04746919
H       -1.53689402      -0.00101565      -0.00007487       0.00000000       0.04000729      -0.04746919       2.47459661
3
Properties=species:S:1:pos:R:3:initial_charges:R:1:bond-order:R:3 connectivity="_JSON [[0, 1, 1.3054467440177504], [0, 2, 0.04940738693984046]]" id=rxn_01-r verified=F pbc="F F F"
O        0.49419309       0.00004903      -0.00001282       0.00000000      14.51338428       1.30544674       0.04940739
O       -0.52480871      -0.00035508       0.00008909       0.00000000       1.30544674      14.40993017      -0.03238687
H       -1.54265028      -0.00101884      -0.00007519       0.00000000       0.04940739      -0.03238687       2.43175104
3
Properties=species:S:1:pos:R:3:initial_charges:R:1:bond-order:R:3 connectivity="_JSON [[0, 1, 1.3455375792703932], [0, 2, 0.07550831023394987], [1, 2, 0.011463193603341366]]" id=rxn_01-r verified=F pbc="F F F"
O        0.52171472       0.00006129      -0.00001420       0.00000000      14.41274790       1.34553758       0.07550831
O       -0.54203985      -0.00036199       0.00009075       0.00000000       1.34553758      14.41188218       0.01146319
H       -1.55295520      -0.00102430      -0.00007550       0.00000000       0.07550831       0.01146319       2.31035175
3
Properties=species:S:1:pos:R:3:initial_charges:R:1:bond-order:R:3 connectivity="_JSON [[0, 1, 1.3352428854000746], [0, 2, 0.13794538049675145], [1, 2, 0.1319339358097498]]" id=rxn_01-r verified=F pbc="F F F"
O        0.56119979       0.00007906      -0.00001600       0.00000000      14.33326979       1.33524289       0.13794538
O       -0.57075589      -0.00037488       0.00009211       0.00000000       1.33524289      14.46781903       0.13193394
H       -1.56374028      -0.00102932      -0.00007509       0.00000000       0.13794538       0.13193394       1.98866677
3
Properties=species:S:1:pos:R:3:initial_charges:R:1:bond-order:R:3 connectivity="_JSON [[0, 1, 1.213395554948303], [0, 2, 0.20559970132866806], [1, 2, 0.34577295158652543]]" id=rxn_01-r verified=F pbc="F F F"
O        0.59885910       0.00009577      -0.00001796       0.00000000      14.39525937       1.21339555       0.20559970
O       -0.60323403      -0.00039002       0.00009306       0.00000000       1.21339555      14.63505876       0.34577295
H       -1.56893131      -0.00103100      -0.00007411       0.00000000       0.20559970       0.34577295       1.44014546
3
Properties=species:S:1:pos:R:3:initial_charges:R:1:bond-order:R:3 connectivity="_JSON [[0, 1, 1.2626854076305034], [0, 2, 0.18881592730198535], [1, 2, 0.26975870718197975]]" id=rxn_01-r verified=F pbc="F F F"
O        0.58704676       0.00009048      -0.00001740       0.00000000      14.35682418       1.26268541       0.18881593
O       -0.59283088      -0.00038501       0.00009292       0.00000000       1.26268541      14.56795506       0.26975871
H       -1.56751876      -0.00103068      -0.00007453       0.00000000       0.18881593       0.26975871       1.63270068
3
Properties=species:S:1:pos:R:3:initial_charges:R:1:bond-order:R:3 connectivity="_JSON [[0, 1, 1.251838596984617], [0, 2, 0.19335018324265058], [1, 2, 0.28814968193659274]]" id=rxn_01-r verified=F pbc="F F F"
O        0.59039884       0.00009185      -0.00001769       0.00000000      14.36482993       1.25183860       0.19335018
O       -0.59516188      -0.00038574       0.00009335       0.00000000       1.25183860      14.58375113       0.28814968
H       -1.56854018      -0.00103133      -0.00007467       0.00000000       0.19335018       0.28814968       1.58474201
3
Properties=species:S:1:pos:R:3:initial_charges:R:1:bond-order:R:3 connectivity="_JSON [[0, 1, 1.24003957878017], [0, 2, 0.1979353619379387], [1, 2, 0.3095136739357975]]" id=rxn_01-r verified=F pbc="F F F"
O        0.59496475       0.00009372      -0.00001809       0.00000000      14.37475483       1.24003958       0.19793536
O       -0.59774399      -0.00038632       0.00009407       0.00000000       1.24003958      14.60288978       0.30951367
H       -1.57052434      -0.00103262      -0.00007498       0.00000000       0.19793536       0.30951367       1.52737816
3
Properties=species:S:1:pos:R:3:initial_charges:R:1:bond-order:R:3 connectivity="_JSON [[0, 1, 1.2334649161183484], [0, 2, 0.2004515715382268], [1, 2, 0.32554570406882594]]" id=rxn_01-r verified=F pbc="F F F"
O        0.59996469       0.00009574      -0.00001855       0.00000000      14.38250938       1.23346492       0.20045157
O       -0.59928413      -0.00038605       0.00009511       0.00000000       1.23346492      14.61801766       0.32554570
H       -1.57398393      -0.00103491      -0.00007557       0.00000000       0.20045157       0.32554570       1.48054858
3
Properties=species:S:1:pos:R:3:initial_charges:R:1:bond-order:R:3 connectivity="_JSON [[0, 1, 1.236045670173318], [0, 2, 0.20025278900316348], [1, 2, 0.33074162681942104]]" id=rxn_01-r verified=F pbc="F F F"
O        0.60461252       0.00009761      -0.00001899       0.00000000      14.38448418       1.23604567       0.20025279
O       -0.59905263      -0.00038467       0.00009641       0.00000000       1.23604567      14.62324780       0.33074163
H       -1.57886178      -0.00103816      -0.00007643       0.00000000       0.20025279       0.33074163       1.45818785
3
Properties=species:S:1:pos:R:3:initial_charges:R:1:bond-order:R:3 connectivity="_JSON [[0, 1, 1.2443202590224323], [0, 2, 0.19800929530537012], [1, 2, 0.3286744468645543]]" id=rxn_01-r verified=F pbc="F F F"
O        0.60889138       0.00009932      -0.00001940       0.00000000      14.38159735       1.24432026       0.19800930
O       -0.59724942      -0.00038233       0.00009789       0.00000000       1.24432026      14.62373044       0.32867445
H       -1.58494075      -0.00104221      -0.00007750       0.00000000       0.19800930       0.32867445       1.45266420
3
Properties=species:S:1:pos:R:3:initial_charges:R:1:bond-order:R:3 connectivity="_JSON [[0, 1, 1.2576187715381157], [0, 2, 0.19446601158415014], [1, 2, 0.3211690780281275]]" id=rxn_01-r verified=F pbc="F F F"
O        0.61322434       0.00010107      -0.00001981       0.00000000      14.37548764       1.25761877       0.19446601
O       -0.59443595      -0.00037932       0.00009954       0.00000000       1.25761877      14.61866387       0.32116908
H       -1.59208231      -0.00104697      -0.00007875       0.00000000       0.19446601       0.32116908       1.45934077
3
Properties=species:S:1:pos:R:3:initial_charges:R:1:bond-order:R:3 connectivity="_JSON [[0, 1, 1.2716617757545192], [0, 2, 0.19103580105709642], [1, 2, 0.3142971424400365]]" id=rxn_01-r verified=F pbc="F F F"
O        0.61841943       0.00010319      -0.00002027       0.00000000      14.36941722       1.27166178       0.19103580
O       -0.59167239      -0.00037617       0.00010136       0.00000000       1.27166178      14.61304994       0.31429714
H       -1.60003442      -0.00105223      -0.00008011       0.00000000       0.19103580       0.31429714       1.46354340
3
Properties=species:S:1:pos:R:3:initial_charges:R:1:bond-order:R:3 connectivity="_JSON [[0, 1, 1.2817433389726052], [0, 2, 0.1891807675924639], [1, 2, 0.31400615397621284]]" id=rxn_01-r verified=F pbc="F F F"
O        0.62501204       0.00010591      -0.00002083       0.00000000      14.36659045       1.28174334       0.18918077
O       -0.59003064      -0.00037350       0.00010326       0.00000000       1.28174334      14.61219405       0.31400615
H       -1.60826150      -0.00105761      -0.00008146       0.00000000       0.18918077       0.31400615       1.45135498
3
Properties=species:S:1:pos:R:3:initial_charges:R:1:bond-order:R:3 connectivity="_JSON [[0, 1, 1.2848453652495282], [0, 2, 0.1890720614486872], [1, 2, 0.3231355777163882]]" id=rxn_01-r verified=F pbc="F F F"
O        0.63295583       0.00010922      -0.00002146       0.00000000      14.36859644       1.28484537       0.18907206
O       -0.58973724      -0.00037148       0.00010518       0.00000000       1.28484537      14.62037007       0.32313558
H       -1.61649187      -0.00106294      -0.00008274       0.00000000       0.18907206       0.32313558       1.41692748
3
Properties=species:S:1:pos:R:3:initial_charges:R:1:bond-order:R:3 connectivity="_JSON [[0, 1, 1.285637324966276], [0, 2, 0.18937826878124953], [1, 2, 0.33584446488999936]]" id=rxn_01-r verified=F pbc="F F F"
O        0.64184812       0.00011296      -0.00002214       0.00000000      14.37260291       1.28563732       0.18937827
O       -0.58998400      -0.00036969       0.00010714       0.00000000       1.28563732      14.63163909       0.33584446
H       -1.62513180      -0.00106846      -0.00008403       0.00000000       0.18937827       0.33584446       1.37403789
3
Properties=species:S:1:pos:R:3:initial_charges:R:1:bond-order:R:3 connectivity="_JSON [[0, 1, 1.2901747713935081], [0, 2, 0.1886825806672023], [1, 2, 0.3445423369320645]]" id=rxn_01-r verified=F pbc="F F F"
O        0.65100093       0.00011687      -0.00002277       0.00000000      14.37430517       1.29017477       0.18868258
O       -0.58955466      -0.00036750       0.00010916       0.00000000       1.29017477      14.63817195       0.34454234
H       -1.63471050      -0.00107454      -0.00008541       0.00000000       0.18868258       0.34454234       1.34072350
3
Properties=species:S:1:pos:R:3:initial_charges:R:1:bond-order:R:3 connectivity="_JSON [[0, 1, 1.300164582630024], [0, 2, 0.18684506983037594], [1, 2, 0.34695413870030456]]" id=rxn_01-r verified=F pbc="F F F"
O        0.66004694       0.00012080      -0.00002333       0.00000000      14.37204382       1.30016458       0.18684507
O       -0.58803158      -0.00036476       0.00011119       0.00000000       1.30016458      14.63737901       0.34695414
H       -1.64527906      -0.00108121      -0.00008689       0.00000000       0.18684507       0.34695414       1.32264959
3
Properties=species:S:1:pos:R:3:initial_charges:R:1:bond-order:R:3 connectivity="_JSON [[0, 1, 1.3114255355437043], [0, 2, 0.18456605228730935], [1, 2, 0.3479346743701295]]" id=rxn_01-r verified=F pbc="F F F"
O        0.66937323       0.00012492      -0.00002383       0.00000000      14.36821270       1.31142554       0.18456605
O       -0.58604035      -0.00036180       0.00011322       0.00000000       1.31142554      14.63514677       0.34793467
H       -1.65659934      -0.00108828      -0.00008841       0.00000000       0.18456605       0.34793467       1.30878801
3
Properties=species:S:1:pos:R:3:initial_charges:R:1:bond-order:R:3 connectivity="_JSON [[0, 1, 1.321820301976481], [0, 2, 0.18259037460634733], [1, 2, 0.35053246594697757]]" id=rxn_01-r verified=F pbc="F F F"
O        0.67944335       0.00012943      -0.00002431       0.00000000      14.36518160       1.32182030       0.18259037
O       -0.58439272      -0.00035906       0.00011518       0.00000000       1.32182030      14.63338432       0.35053247
H       -1.66832428      -0.00109551      -0.00008989       0.00000000       0.18259037       0.35053247       1.29154779
3
Properties=species:S:1:pos:R:3:initial_charges:R:1:bond-order:R:3 connectivity="_JSON [[0, 1, 1.3277901513809054], [0, 2, 0.18116874938839775], [1, 2, 0.3583549813366712]]" id=rxn_01-r verified=F pbc="F F F"
O        0.69043695       0.00013440      -0.00002480       0.00000000      14.36462670       1.32779015       0.18116875
O       -0.58356692      -0.00035682       0.00011705       0.00000000       1.32779015      14.63760024       0.35835498
H       -1.68015682      -0.00110269      -0.00009127       0.00000000       0.18116875       0.35835498       1.26314529
3
Properties=species:S:1:pos:R:3:initial_charges:R:1:bond-order:R:3 connectivity="_JSON [[0, 1, 1.333893491318125], [0, 2, 0.1797174570059524], [1, 2, 0.36638929142579013]]" id=rxn_01-r verified=F pbc="F F F"
O        0.70198138       0.00013969      -0.00002523       0.00000000      14.36474744       1.33389349       0.17971746
O       -0.58289912      -0.00035477       0.00011881       0.00000000       1.33389349      14.64029630       0.36638929
H       -1.69238773      -0.00111000      -0.00009259       0.00000000       0.17971746       0.36638929       1.23495578
3
Properties=species:S:1:pos:R:3:initial_charges:R:1:bond-order:R:3 connectivity="_JSON [[0, 1, 1.3423220652261494], [0, 2, 0.17791835798821698], [1, 2, 0.37173403738456157]]" id=rxn_01-r verified=F pbc="F F F"
O        0.71371674       0.00014517      -0.00002556       0.00000000      14.36305106       1.34232207       0.17791836
O       -0.58181454      -0.00035264       0.00012045       0.00000000       1.34232207      14.63916623       0.37173404
H       -1.70522496      -0.00111759      -0.00009388       0.00000000       0.17791836       0.37173404       1.21383379
3
Properties=species:S:1:pos:R:3:initial_charges:R:1:bond-order:R:3 connectivity="_JSON [[0, 1, 1.3510404115895593], [0, 2, 0.1758906865970463], [1, 2, 0.37644116856736803]]" id=rxn_01-r verified=F pbc="F F F"
O        0.72571842       0.00015088      -0.00002580       0.00000000      14.36071867       1.35104041       0.17589069
O       -0.58049353      -0.00035053       0.00012194       0.00000000       1.35104041      14.63711391       0.37644117
H       -1.71855379      -0.00112536      -0.00009512       0.00000000       0.17589069       0.37644117       1.19542289
3
Properties=species:S:1:pos:R:3:initial_charges:R:1:bond-order:R:3 connectivity="_JSON [[0, 1, 1.3594099670528932], [0, 2, 0.17385728636233247], [1, 2, 0.3814048358879651]]" id=rxn_01-r verified=F pbc="F F F"
O        0.73813572       0.00015688      -0.00002595       0.00000000      14.35855533       1.35940997       0.17385729
O       -0.57924768      -0.00034864       0.00012325       0.00000000       1.35940997      14.63473146       0.38140484
H       -1.73220606      -0.00113319      -0.00009627       0.00000000       0.17385729       0.38140484       1.17736903
3
Properties=species:S:1:pos:R:3:initial_charges:R:1:bond-order:R:3 connectivity="_JSON [[0, 1, 1.3658474869608241], [0, 2, 0.17182055013792324], [1, 2, 0.38817236261973875]]" id=rxn_01-r verified=F pbc="F F F"
O        0.75104462       0.00016320      -0.00002602       0.00000000      14.35754113       1.36584749       0.17182055
O       -0.57828784      -0.00034707       0.00012436       0.00000000       1.36584749      14.63433068       0.38817236
H       -1.74605100      -0.00114100      -0.00009730       0.00000000       0.17182055       0.38817236       1.15644739
3
Properties=species:S:1:pos:R:3:initial_charges:R:1:bond-order:R:3 connectivity="_JSON [[0, 1, 1.374763394133949], [0, 2, 0.1695338117842363], [1, 2, 0.3934778583047249]]" id=rxn_01-r verified=F pbc="F F F"
O        0.76550153       0.00017040      -0.00002597       0.00000000      14.35549589       1.37476339       0.16953381
O       -0.57704587      -0.00034549       0.00012536       0.00000000       1.37476339      14.62998432       0.39347786
H       -1.76172553      -0.00114971      -0.00009833       0.00000000       0.16953381       0.39347786       1.13896966
3
Properties=species:S:1:pos:R:3:initial_charges:R:1:bond-order:R:3 connectivity="_JSON [[0, 1, 1.3820890464422784], [0, 2, 0.16685110448890084], [1, 2, 0.4011778575673422]]" id=rxn_01-r verified=F pbc="F F F"
O        0.78191560       0.00017870      -0.00002578       0.00000000      14.35432662       1.38208905       0.16685110
O       -0.57592581      -0.00034415       0.00012617       0.00000000       1.38208905      14.62793974       0.40117786
H       -1.77925826      -0.00115927      -0.00009931       0.00000000       0.16685110       0.40117786       1.11749762
3
Properties=species:S:1:pos:R:3:initial_charges:R:1:bond-order:R:3 connectivity="_JSON [[0, 1, 1.3929009394764027], [0, 2, 0.16384639291173103], [1, 2, 0.40607144105047255]]" id=rxn_01-r verified=F pbc="F F F"
O        0.80008956       0.00018811      -0.00002535       0.00000000      14.35131189       1.39290094       0.16384639
O       -0.57421639      -0.00034279       0.00012669       0.00000000       1.39290094      14.62007649       0.40607144
H       -1.79917857      -0.00116996      -0.00010024       0.00000000       0.16384639       0.40607144       1.10297407
3
Properties=species:S:1:pos:R:3:initial_charges:R:1:bond-order:R:3:forces:R:3 connectivity="_JSON [[0, 1, 1.3929009394764027], [0, 2, 0.16384639291173103], [1, 2, 0.40607144105047255]]" id=rxn_01-r verified=F energy=0.020292782951371987 pbc="F F F"
O        0.80008956       0.00018811      -0.00002535       0.00000000      14.35131189       1.39290094       0.16384639       0.08527038       0.00004602       0.00000394
O       -0.57421639      -0.00034279       0.00012669       0.00000000       1.39290094      14.62007649       0.40607144      -0.00851748      -0.00000875      -0.00000468
H       -1.79917857      -0.00116996      -0.00010024       0.00000000       0.16384639       0.40607144       1.10297407      -0.07700985      -0.00003699       0.00000086
