3
Properties=species:S:1:pos:R:3:initial_charges:R:1:bond-order:R:3 connectivity="_JSON [[0, 1, 1.2753776370830778], [0, 2, 0.04000729482113625]]" id=rxn_01-r verified=F pbc="F F F"
O        0.48020082       0.00004288      -0.00001204       0.00000000      14.57407241       1.27537764       0.04000729
O       -0.51656372      -0.00035206       0.00008800       0.00000000       1.27537764      14.41549950      -0.04746919
H       -1.53689402      -0.00101565      -0.00007487       0.00000000       0.04000729      -0.04746919       2.47459661
3
Properties=species:S:1:pos:R:3:initial_charges:R:1:bond-order:R:3 connectivity="_JSON [[0, 1, 1.270876336968055], [0, 2, 0.03788622798666032]]" id=rxn_01-r verified=F pbc="F F F"
O        0.47912756       0.00004411      -0.00001024       0.00000000      14.58921099       1.27087634       0.03788623
O       -0.51343193      -0.00035358       0.00008487       0.00000000       1.27087634      14.41816209      -0.04835023
H       -1.53893982      -0.00101544      -0.00007356       0.00000000       0.03788623      -0.04835023       2.47180225
3
Properties=species:S:1:pos:R:3:initial_charges:R:1:bond-order:R:3 connectivity="_JSON [[0, 1, 1.2591392678004825], [0, 2, 0.0335291471134743]]" id=rxn_01-r verified=F pbc="F F F"
O        0.47633930       0.00004613      -0.00000677       0.00000000      14.62451221       1.25913927       0.03352915
O       -0.50651181      -0.00035599       0.00007892       0.00000000       1.25913927      14.42433281      -0.04980492
H       -1.54306563      -0.00101521      -0.00007112       0.00000000       0.03352915      -0.04980492       2.46542800
3
Properties=species:S:1:pos:R:3:initial_charges:R:1:bond-order:R:3 connectivity="_JSON [[0, 1, 1.2344211824918483], [0, 2, 0.027102378875053176]]" id=rxn_01-r verified=F pbc="F F F"
O        0.47063173       0.00004803      -0.00000193       0.00000000      14.69019047       1.23442118       0.02710238
O       -0.49459936      -0.00035800       0.00007085       0.00000000       1.23442118      14.43526475      -0.05142226
H       -1.54931277      -0.00101535      -0.00006794       0.00000000       0.02710238      -0.05142226       2.45434218
3
Properties=species:S:1:pos:R:3:initial_charges:R:1:bond-order:R:3 connectivity="_JSON [[0, 1, 1.1872957780718012], [0, 2, 0.019644727126563035]]" id=rxn_01-r verified=F pbc="F F F"
O        0.46061748       0.00004874       0.00000385       0.00000000      14.80106631       1.18729578       0.01964473
O       -0.47615354      -0.00035799       0.00006154       0.00000000       1.18729578      14.45354371      -0.05138989
H       -1.55780773      -0.00101632      -0.00006448       0.00000000       0.01964473      -0.05138989       2.43428876
3
Properties=species:S:1:pos:R:3:initial_charges:R:1:bond-order:R:3 connectivity="_JSON [[0, 1, 1.1086770633646013], [0, 2, 0.013118197764267071]]" id=rxn_01-r verified=F pbc="F F F"
O        0.44581973       0.00004759       0.00001016       0.00000000      14.97003237       1.10867706       0.01311820
O       -0.45023375      -0.00035470       0.00005183       0.00000000       1.10867706      14.48069875      -0.04758596
H       -1.56888821      -0.00101867      -0.00006112       0.00000000       0.01311820      -0.04758596       2.40085029
3
Properties=species:S:1:pos:R:3:initial_charges:R:1:bond-order:R:3 connectivity="_JSON [[0, 1, 0.9997692323610315], [0, 2, 0.009142137248523067]]" id=rxn_01-r verified=F pbc="F F F"
O        0.42837469       0.00004526       0.00001659       0.00000000      15.19030154       0.99976923       0.00914214
O       -0.41810344      -0.00034810       0.00004235       0.00000000       0.99976923      14.51618687      -0.03920130
H       -1.58368015      -0.00102322      -0.00005813       0.00000000       0.00914214      -0.03920130       2.35409145
3
Properties=species:S:1:pos:R:3:initial_charges:R:1:bond-order:R:3 connectivity="_JSON [[0, 1, 0.906456241359052], [0, 2, 0.007745996178414077]]" id=rxn_01-r verified=F pbc="F F F"
O        0.41924537       0.00004679       0.00002277       0.00000000      15.37728692       0.90645624       0.00774600
O       -0.38691236      -0.00034108       0.00003377       0.00000000       0.90645624      14.54930639      -0.02839384
H       -1.60559578      -0.00103182      -0.00005574       0.00000000       0.00774600      -0.02839384       2.30178990
3
Properties=species:S:1:pos:R:3:initial_charges:R:1:bond-order:R:3 connectivity="_JSON [[0, 1, 0.9349435024894709], [0, 2, 0.007966140969347455]]" id=rxn_01-r verified=F pbc="F F F"
O        0.42270933       0.00004704       0.00002128       0.00000000      15.32310505       0.93494350       0.00796614
O       -0.39511527      -0.00034307       0.00003588       0.00000000       0.93494350      14.53942257      -0.03063275
H       -1.60091746      -0.00103007      -0.00005635       0.00000000       0.00796614      -0.03063275       2.31291860
3
Properties=species:S:1:pos:R:3:initial_charges:R:1:bond-order:R:3 connectivity="_JSON [[0, 1, 0.9435076744168798], [0, 2, 0.008010685619099131]]" id=rxn_01-r verified=F pbc="F F F"
O        0.42500448       0.00004827       0.00002137       0.00000000      15.30903611       0.94350767       0.00801069
O       -0.39585932      -0.00034351       0.00003581       0.00000000       0.94350767      14.53715014      -0.03019623
H       -1.60251686      -0.00103086      -0.00005637       0.00000000       0.00801069      -0.03019623       2.31116948
3
Properties=species:S:1:pos:R:3:initial_charges:R:1:bond-order:R:3 connectivity="_JSON [[0, 1, 0.9553932340003675], [0, 2, 0.008066497410481445]]" id=rxn_01-r verified=F pbc="F F F"
O        0.42828334       0.00005005       0.00002153       0.00000000      15.28957277       0.95539323       0.00806650
O       -0.39680423      -0.00034410       0.00003568       0.00000000       0.95539323      14.53411360      -0.02950055
H       -1.60492371      -0.00103204      -0.00005640       0.00000000       0.00806650      -0.02950055       2.30839526
3
Properties=species:S:1:pos:R:3:initial_charges:R:1:bond-order:R:3 connectivity="_JSON [[0, 1, 0.9694693079279295], [0, 2, 0.008110970582292383]]" id=rxn_01-r verified=F pbc="F F F"
O        0.43234633       0.00005229       0.00002177       0.00000000      15.26669574       0.96946931       0.00811097
O       -0.39772170      -0.00034476       0.00003548       0.00000000       0.96946931      14.53071215      -0.02845794
H       -1.60816703      -0.00103362      -0.00005643       0.00000000       0.00811097      -0.02845794       2.30434742
3
Properties=species:S:1:pos:R:3:initial_charges:R:1:bond-order:R:3 connectivity="_JSON [[0, 1, 0.9840251321961487], [0, 2, 0.00815723587319218]]" id=rxn_01-r verified=F pbc="F F F"
O        0.43690529       0.00005487       0.00002210       0.00000000      15.24359025       0.98402513       0.00815724
O       -0.39828020      -0.00034534       0.00003517       0.00000000       0.98402513      14.52732524      -0.02714591
H       -1.61228853      -0.00103560      -0.00005646       0.00000000       0.00815724      -0.02714591       2.29901159
3
Properties=species:S:1:pos:R:3:initial_charges:R:1:bond-order:R:3 connectivity="_JSON [[0, 1, 0.9971543437214185], [0, 2, 0.008171731000406699]]" id=rxn_01-r verified=F pbc="F F F"
O        0.44157967       0.00005762       0.00002255       0.00000000      15.22351189       0.99715434       0.00817173
O       -0.39809185      -0.00034569       0.00003473       0.00000000       0.99715434      14.52465535      -0.02551221
H       -1.61728756      -0.00103799      -0.00005646       0.00000000       0.00817173      -0.02551221       2.29220503
3
Properties=species:S:1:pos:R:3:initial_charges:R:1:bond-order:R:3 connectivity="_JSON [[0, 1, 1.0070042605975722], [0, 2, 0.008150262724762413]]" id=rxn_01-r verified=F pbc="F F F"
O        0.44594848       0.00006034       0.00002312       0.00000000      15.20933359       1.00700426       0.00815026
O       -0.39682910      -0.00034565       0.00003415       0.00000000       1.00700426      14.52355277      -0.02369291
H       -1.62305248      -0.00104070      -0.00005644       0.00000000       0.00815026      -0.02369291       2.28419043
3
Properties=species:S:1:pos:R:3:initial_charges:R:1:bond-order:R:3 connectivity="_JSON [[0, 1, 1.0125062318359215], [0, 2, 0.008051839190926061]]" id=rxn_01-r verified=F pbc="F F F"
O        0.44970694       0.00006287       0.00002379       0.00000000      15.20324397       1.01250623       0.00805184
O       -0.39435493      -0.00034516       0.00003343       0.00000000       1.01250623      14.52374861      -0.02159388
H       -1.62938724      -0.00104366      -0.00005639       0.00000000       0.00805184      -0.02159388       2.27507905
3
Properties=species:S:1:pos:R:3:initial_charges:R:1:bond-order:R:3 connectivity="_JSON [[0, 1, 1.0134539282122095], [0, 2, 0.007868670127044076]]" id=rxn_01-r verified=F pbc="F F F"
O        0.45277263       0.00006513       0.00002456       0.00000000      15.20481784       1.01345393       0.00786867
O       -0.39071890      -0.00034420       0.00003260       0.00000000       1.01345393      14.52591214      -0.01923408
H       -1.63611963      -0.00104678      -0.00005631       0.00000000       0.00786867      -0.01923408       2.26509299
3
Properties=species:S:1:pos:R:3:initial_charges:R:1:bond-order:R:3 connectivity="_JSON [[0, 1, 1.010591748977027], [0, 2, 0.007675418371055426]]" id=rxn_01-r verified=F pbc="F F F"
O        0.45525887       0.00006718       0.00002539       0.00000000      15.21281890       1.01059175       0.00767542
O       -0.38607221      -0.00034284       0.00003168       0.00000000       1.01059175      14.52955091      -0.01692831
H       -1.64316637      -0.00105004      -0.00005622       0.00000000       0.00767542      -0.01692831       2.25495247
3
Properties=species:S:1:pos:R:3:initial_charges:R:1:bond-order:R:3 connectivity="_JSON [[0, 1, 1.0051811381320601], [0, 2, 0.007479447958645223]]" id=rxn_01-r verified=F pbc="F F F"
O        0.45744922       0.00006913       0.00002629       0.00000000      15.22484016       1.00518114       0.00747945
O       -0.38066852      -0.00034118       0.00003069       0.00000000       1.00518114      14.53443001      -0.01464320
H       -1.65056548      -0.00105351      -0.00005611       0.00000000       0.00747945      -0.01464320       2.24469506
3
Properties=species:S:1:pos:R:3:initial_charges:R:1:bond-order:R:3 connectivity="_JSON [[0, 1, 0.9991950417221825], [0, 2, 0.007306804162610063]]" id=rxn_01-r verified=F pbc="F F F"
O        0.45974526       0.00007119       0.00002725       0.00000000      15.23736799       0.99919504       0.00730680
O       -0.37490431      -0.00033939       0.00002964       0.00000000       0.99919504      14.54000440      -0.01243265
H       -1.65845296      -0.00105729      -0.00005600       0.00000000       0.00730680      -0.01243265       2.23448921
3
Properties=species:S:1:pos:R:3:initial_charges:R:1:bond-order:R:3 connectivity="_JSON [[0, 1, 0.99469707994987], [0, 2, 0.007154938858894047]]" id=rxn_01-r verified=F pbc="F F F"
O        0.46256073       0.00007356       0.00002826       0.00000000      15.24665543       0.99469708       0.00715494
O       -0.36923303      -0.00033766       0.00002854       0.00000000       0.99469708      14.54577302      -0.01024889
H       -1.66690661      -0.00106140      -0.00005591       0.00000000       0.00715494      -0.01024889       2.22436529
3
Properties=species:S:1:pos:R:3:initial_charges:R:1:bond-order:R:3 connectivity="_JSON [[0, 1, 0.993011398370578], [0, 2, 0.007013051926591488]]" id=rxn_01-r verified=F pbc="F F F"
O        0.46615322       0.00007634       0.00002930       0.00000000      15.25038869       0.99301140       0.00701305
O       -0.36395504      -0.00033612       0.00002741       0.00000000       0.99301140      14.55129066      -0.00807546
H       -1.67586092      -0.00106581      -0.00005583       0.00000000       0.00701305      -0.00807546       2.21442268
3
Properties=species:S:1:pos:R:3:initial_charges:R:1:bond-order:R:3 connectivity="_JSON [[0, 1, 0.9944446009052443], [0, 2, 0.006874636248624413]]" id=rxn_01-r verified=F pbc="F F F"
O        0.47053735       0.00007954       0.00003036       0.00000000      15.24830470       0.99444460       0.00687464
O       -0.35916193      -0.00033481       0.00002626       0.00000000       0.99444460      14.55615577      -0.00594244
H       -1.68523194      -0.00107044      -0.00005576       0.00000000       0.00687464      -0.00594244       2.20478594
3
Properties=species:S:1:pos:R:3:initial_charges:R:1:bond-order:R:3 connectivity="_JSON [[0, 1, 0.9979154127897255], [0, 2, 0.006726349299839009]]" id=rxn_01-r verified=F pbc="F F F"
O        0.47551860       0.00008307       0.00003145       0.00000000      15.24229628       0.99791541       0.00672635
O       -0.35462977      -0.00033362       0.00002511       0.00000000       0.99791541      14.56069318      -0.00381659
H       -1.69495919      -0.00107519      -0.00005570       0.00000000       0.00672635      -0.00381659       2.19536019
3
Properties=species:S:1:pos:R:3:initial_charges:R:1:bond-order:R:3 connectivity="_JSON [[0, 1, 1.0013643495821858], [0, 2, 0.006564958204084975]]" id=rxn_01-r verified=F pbc="F F F"
O        0.48076403       0.00008675       0.00003256       0.00000000      15.23568924       1.00136435       0.00656496
O       -0.34988829      -0.00033234       0.00002394       0.00000000       1.00136435      14.56581508      -0.00170743
H       -1.70497138      -0.00107998      -0.00005563       0.00000000       0.00656496      -0.00170743       2.18605193
3
Properties=species:S:1:pos:R:3:initial_charges:R:1:bond-order:R:3 connectivity="_JSON [[0, 1, 1.0032436986759554], [0, 2, 0.006416062505084713], [1, 2, 0.000232116990310796]]" id=rxn_01-r verified=F pbc="F F F"
O        0.48593506       0.00009042       0.00003370       0.00000000      15.23110081       1.00324370       0.00641606
O       -0.34463205      -0.00033081       0.00002277       0.00000000       1.00324370      14.57205107       0.00023212
H       -1.71522341      -0.00108475      -0.00005554       0.00000000       0.00641606       0.00023212       2.17706436
3
Properties=species:S:1:pos:R:3:initial_charges:R:1:bond-order:R:3 connectivity="_JSON [[0, 1, 1.0034944382337927], [0, 2, 0.006286677083231521], [1, 2, 0.0019638491574109247]]" id=rxn_01-r verified=F pbc="F F F"
O        0.49088324       0.00009399       0.00003483       0.00000000      15.22863533       1.00349444       0.00628668
O       -0.33898032      -0.00032912       0.00002160       0.00000000       1.00349444      14.57939674       0.00196385
H       -1.72579488      -0.00108948      -0.00005545       0.00000000       0.00628668       0.00196385       2.16847800
3
Properties=species:S:1:pos:R:3:initial_charges:R:1:bond-order:R:3 connectivity="_JSON [[0, 1, 1.0024119312136959], [0, 2, 0.006159498411605482], [1, 2, 0.0035821899204244254]]" id=rxn_01-r verified=F pbc="F F F"
O        0.49569080       0.00009748       0.00003596       0.00000000      15.22756840       1.00241193       0.00615950
O       -0.33302166      -0.00032734       0.00002043       0.00000000       1.00241193      14.58796266       0.00358219
H       -1.73665558      -0.00109420      -0.00005535       0.00000000       0.00615950       0.00358219       2.16016170
3
Properties=species:S:1:pos:R:3:initial_charges:R:1:bond-order:R:3:forces:R:3 connectivity="_JSON [[0, 1, 1.0024119312136959], [0, 2, 0.006159498411605482], [1, 2, 0.0035821899204244254]]" id=rxn_01-r verified=F energy=0.24643645957638116 pbc="F F F"
O        0.49569080       0.00009748       0.00003596       0.00000000      15.22756840       1.00241193       0.00615950       0.04368951       0.00002930       0.00000895
O       -0.33302166      -0.00032734       0.00002043       0.00000000       1.00241193      14.58796266       0.00358219       0.05210535       0.00001462      -0.00000902
H       -1.73665558      -0.00109420      -0.00005535       0.00000000       0.00615950       0.00358219       2.16016170      -0.09809344      -0.00004490      -0.00000007
