3
Properties=species:S:1:pos:R:3:bond-order:R:3:forces:R:3 energy=0.6827479196250925 pbc="F F F"
H        0.00000000       0.00000000       0.00000000       1.76557500       0.19771874       0.00891457      -1.99999989      -0.00000000       0.00000000
H        2.00000000       0.00000000       0.00000000       0.19771874       1.66014589       0.19771874       1.99999995      -0.00000000      -0.00000000
H        4.00000000       0.00000000       0.00000000       0.00891457       0.19771874       1.76557500      -1.99999974       0.00000000      -0.00000000
3
Properties=species:S:1:pos:R:3:bond-order:R:3:forces:R:3 energy=0.7449816347041476 pbc="F F F"
H       -0.02000000      -0.00000000       0.00000000       1.79213600       0.16834338       0.00887053      -2.12517414       0.00000000       0.00000000
H        2.02000000      -0.00000000      -0.00000000       0.16834338       1.65600340       0.23093051       2.12517421       0.00000000       0.00000000
H        3.98000000       0.00000000      -0.00000000       0.00887053       0.23093051       1.73557174      -2.12517399       0.00000000       0.00000000
3
Properties=species:S:1:pos:R:3:bond-order:R:3:forces:R:3 energy=0.8750546534471536 pbc="F F F"
H       -0.06125174       0.00000000       0.00000000       1.83743812       0.11931954       0.00867765      -2.39209548      -0.00000000      -0.00000000
H        2.06125174      -0.00000000      -0.00000000       0.11931954       1.61726902       0.31536736       2.39209558       0.00000000      -0.00000000
H        3.93874827       0.00000000      -0.00000000       0.00867765       0.31536736       1.65856376      -2.39209536      -0.00000000       0.00000000
3
Properties=species:S:1:pos:R:3:bond-order:R:3:forces:R:3 energy=1.125658177681859 pbc="F F F"
H       -0.12642443       0.00000000       0.00000000       1.89261386       0.06537363       0.00802786      -2.87350686      -0.00000000      -0.00000000
H        2.12642444      -0.00000000      -0.00000000       0.06537363       1.47440659       0.50212721       2.87350703       0.00000000      -0.00000000
H        3.87357557      -0.00000000      -0.00000000       0.00802786       0.50212721       1.48192214      -2.87350683      -0.00000000       0.00000000
3
Properties=species:S:1:pos:R:3:bond-order:R:3:forces:R:3 energy=1.7848419711873413 pbc="F F F"
H       -0.22033220      -0.00000000       0.00000000       1.95292087       0.01858803       0.00600864      -3.77574632       0.00000000      -0.00000000
H        2.22033221      -0.00000000      -0.00000000       0.01858803       1.09841434       0.90646154       3.77574679      -0.00000000       0.00000000
H        3.77966781      -0.00000000       0.00000000       0.00600864       0.90646154       1.08654836      -3.77574667       0.00000000      -0.00000000
3
Properties=species:S:1:pos:R:3:bond-order:R:3:forces:R:3 energy=1.9860015033061744 pbc="F F F"
H       -0.33580225      -0.00000000      -0.00000000       1.98351650       0.00470232       0.00147153      -3.98596663      -0.00000000       0.00000000
H        2.33580227      -0.00000000      -0.00000000       0.00470232       1.00709229       0.99768934       3.98596961       0.00000000       0.00000000
H        3.66419776       0.00000000      -0.00000000       0.00147153       0.99768934       1.00166482      -3.98596166      -0.00000000       0.00000000
3
Properties=species:S:1:pos:R:3:bond-order:R:3:forces:R:3 energy=1.9942315148476562 pbc="F F F"
H       -0.45127231      -0.00000000       0.00000000       1.99246946       0.00240432       0.00014349      -3.99418354       0.00000000      -0.00000000
H        2.45127237       0.00000000       0.00000000       0.00240432       1.00173790       0.99951707       3.99420687      -0.00000000       0.00000000
H        3.54872776       0.00000000       0.00000000       0.00014349       0.99951707       1.00166289      -3.99418118      -0.00000000       0.00000000
3
Properties=species:S:1:pos:R:3:bond-order:R:3:forces:R:3 energy=1.9968460942292796 pbc="F F F"
H       -0.56674229      -0.00000000      -0.00000000       1.99617208       0.00142623      -0.00012814       0.00218971      -0.00000000      -0.00000000
H        2.56674264       0.00000000       0.00000000       0.00142623       0.99877059       0.99984825       3.99671949       0.00000000       0.00000000
H        3.43325785      -0.00000000       0.00000000      -0.00012814       0.99984825       1.00276465      -3.99673222       0.00000000       0.00000000
3
Properties=species:S:1:pos:R:3:bond-order:R:3:forces:R:3 energy=1.997710182035041 pbc="F F F"
H       -0.64549446      -0.00000000      -0.00000000       1.99770260       0.00108006      -0.00024729       0.00168578       0.00000000       0.00000000
H        2.69673901       0.00000000       0.00000000       0.00108006       1.00166817       0.99993457       0.00210156      -0.00000000      -0.00000000
H        3.30326155      -0.00000000       0.00000000      -0.00024729       0.99993457       0.99909453      -0.00200022       0.00000000      -0.00000000
3
Properties=species:S:1:pos:R:3:bond-order:R:3:forces:R:3 energy=0.6827479196250898 pbc="F F F"
H        0.00000000       0.00000000       0.00000000       1.76557500       0.19771874       0.00891457       1.99999974       0.00000000      -0.00000000
H        2.00000000       0.00000000       0.00000000       0.19771874       1.66014589       0.19771874      -1.99999995      -0.00000000       0.00000000
H        4.00000000       0.00000000       0.00000000       0.00891457       0.19771874       1.76557500       1.99999989      -0.00000000       0.00000000
3
Properties=species:S:1:pos:R:3:bond-order:R:3:forces:R:3 energy=0.7449816347041458 pbc="F F F"
H        0.02000000       0.00000000      -0.00000000       1.73557174       0.23093051       0.00887053       2.12517399       0.00000000      -0.00000000
H        1.98000000      -0.00000000       0.00000000       0.23093051       1.65600340       0.16834338      -2.12517421      -0.00000000       0.00000000
H        4.02000000      -0.00000000       0.00000000       0.00887053       0.16834338       1.79213600       2.12517414       0.00000000      -0.00000000
3
Properties=species:S:1:pos:R:3:bond-order:R:3:forces:R:3 energy=0.8750546534471525 pbc="F F F"
H        0.06125173       0.00000000      -0.00000000       1.65856376       0.31536736       0.00867765       2.39209536      -0.00000000       0.00000000
H        1.93874826      -0.00000000       0.00000000       0.31536736       1.61726902       0.11931954      -2.39209558       0.00000000       0.00000000
H        4.06125174       0.00000000       0.00000000       0.00867765       0.11931954       1.83743812       2.39209548       0.00000000      -0.00000000
3
Properties=species:S:1:pos:R:3:bond-order:R:3:forces:R:3 energy=1.1256581776818222 pbc="F F F"
H        0.12642443       0.00000000      -0.00000000       1.48192214       0.50212721       0.00802786       2.87350683      -0.00000000      -0.00000000
H        1.87357556       0.00000000       0.00000000       0.50212721       1.47440659       0.06537363      -2.87350703       0.00000000      -0.00000000
H        4.12642443       0.00000000      -0.00000000       0.00802786       0.06537363       1.89261386       2.87350686       0.00000000       0.00000000
3
Properties=species:S:1:pos:R:3:bond-order:R:3:forces:R:3 energy=1.7848419711872494 pbc="F F F"
H        0.22033219       0.00000000      -0.00000000       1.08654836       0.90646154       0.00600864       3.77574667      -0.00000000       0.00000000
H        1.77966779       0.00000000       0.00000000       0.90646154       1.09841434       0.01858803      -3.77574679       0.00000000       0.00000000
H        4.22033220       0.00000000      -0.00000000       0.00600864       0.01858803       1.95292087       3.77574632       0.00000000       0.00000000
3
Properties=species:S:1:pos:R:3:bond-order:R:3:forces:R:3 energy=1.9860015033061695 pbc="F F F"
H        0.33580224      -0.00000000       0.00000000       1.00166482       0.99768934       0.00147153       3.98596166      -0.00000000       0.00000000
H        1.66419773       0.00000000       0.00000000       0.99768934       1.00709229       0.00470232      -3.98596961       0.00000000       0.00000000
H        4.33580225       0.00000000       0.00000000       0.00147153       0.00470232       1.98351650       3.98596663      -0.00000000      -0.00000000
3
Properties=species:S:1:pos:R:3:bond-order:R:3:forces:R:3 energy=1.9942315148476502 pbc="F F F"
H        0.45127224      -0.00000000       0.00000000       1.00166289       0.99951707       0.00014349       3.99418118       0.00000000      -0.00000000
H        1.54872763       0.00000000       0.00000000       0.99951707       1.00173790       0.00240432      -3.99420687      -0.00000000      -0.00000000
H        4.45127231       0.00000000      -0.00000000       0.00014349       0.00240432       1.99246946       3.99418354      -0.00000000       0.00000000
3
Properties=species:S:1:pos:R:3:bond-order:R:3:forces:R:3 energy=1.9968460942293738 pbc="F F F"
H        0.56674215      -0.00000000       0.00000000       1.00276465       0.99984825      -0.00012814       3.99673222      -0.00000000       0.00000000
H        1.43325736      -0.00000000       0.00000000       0.99984825       0.99877059       0.00142623      -3.99671949       0.00000000      -0.00000000
H        4.56674229       0.00000000       0.00000000      -0.00012814       0.00142623       1.99617208      -0.00218970      -0.00000000      -0.00000000
3
Properties=species:S:1:pos:R:3:bond-order:R:3:forces:R:3 energy=1.997710182035247 pbc="F F F"
H        0.69673845      -0.00000000       0.00000000       0.99909453       0.99993457      -0.00024729       0.00200022       0.00000000      -0.00000000
H        1.30326099       0.00000000      -0.00000000       0.99993457       1.00166817       0.00108006      -0.00210157      -0.00000000      -0.00000000
H        4.64549446      -0.00000000      -0.00000000      -0.00024729       0.00108006       1.99770260      -0.00168579       0.00000000      -0.00000000
3
Properties=species:S:1:pos:R:3:bond-order:R:3:forces:R:3 energy=0.18274791962509115 pbc="F F F"
H        0.00000000       0.00000000       0.00000000       1.76557500       0.19771874       0.00891457      -0.00000008      -0.00000000       0.00000000
H        2.00000000       0.00000000       0.00000000       0.19771874       1.66014589       0.19771874       0.00000000      -0.00000000      -0.00000000
H        4.00000000       0.00000000       0.00000000       0.00891457       0.19771874       1.76557500       0.00000008      -0.00000000      -0.00000000
