4
Properties=species:S:1:pos:R:3:initial_charges:R:1:bond-order:R:4:forces:R:3 connectivity="_JSON [[0, 1, 0.9850453744089444], [0, 2, 0.0030959911576917904], [0, 3, 0.008102179342813104], [1, 2, 0.0011581960392877792], [1, 3, 0.028714558060072323], [2, 3, 1.0215930495536774]]" energy=10.072064581438621 pbc="F F F"
H       -2.07783336       0.17220359       0.02900938       0.00000000       1.03690869       0.98504537       0.00309599       0.00810218      -6.56778222       5.94179702       0.47285657
H       -1.53162069      -0.33400491       0.00210870       0.00000000       0.98504537       0.95784131       0.00115820       0.02871456       6.53152375      -5.88635529      -0.50949340
H        0.61063487       0.92542201      -0.03084986       0.00000000       0.00309599       0.00115820       0.62867842       1.02159305       0.00753288      -0.00265099      -0.13372562
O        0.78073256      -0.03048517      -0.09567442       0.00000000       0.00810218       0.02871456       1.02159305      15.28115289      -0.06334692       0.02322244       0.16935066
4
Properties=species:S:1:pos:R:3:initial_charges:R:1:bond-order:R:4:forces:R:3 connectivity="_JSON [[0, 1, 0.9786784972838727], [0, 2, 0.0033038404619452535], [0, 3, 0.01454346651808057], [1, 2, 0.001414069431853043], [1, 3, 0.03211405189198798], [2, 3, 1.0211246429348828]]" energy=7.253874606032989 pbc="F F F"
H       -2.14351118       0.23162156       0.03373795       0.00000000       1.03862506       0.97867850       0.00330384       0.01454347      -4.73992297       4.27789334       0.19386866
H       -1.46630545      -0.39286846      -0.00298623       0.00000000       0.97867850       0.95498277       0.00141407       0.03211405       4.73579913      -4.21599831      -0.19046767
H        0.61071020       0.92539550      -0.03218712       0.00000000       0.00330384       0.00141407       0.62810130       1.02112464       0.01008366      -0.01110078       0.00841695
O        0.78009909      -0.03025295      -0.09398091       0.00000000       0.01454347       0.03211405       1.02112464      15.27593373      -0.10073358       0.02331980      -0.00697319
4
Properties=species:S:1:pos:R:3:initial_charges:R:1:bond-order:R:4:forces:R:3 connectivity="_JSON [[0, 1, 0.9581205795889288], [0, 2, 0.004172415045801389], [0, 3, 0.028100824939192286], [1, 2, 0.002022037358492204], [1, 3, 0.0458867099443951], [2, 3, 1.0202768386666086]]" energy=4.382586407707178 pbc="F F F"
H       -2.24872350       0.32667737       0.03946603       0.00000000       1.05050791       0.95812058       0.00417242       0.02810082      -2.29116337       2.06427386       0.09635394
H       -1.36139776      -0.48676192      -0.00892730       0.00000000       0.95812058       0.94472336       0.00202204       0.04588671       2.38634162      -1.97411834      -0.09871308
H        0.61088910       0.92523791      -0.03301458       0.00000000       0.00417242       0.00202204       0.62731073       1.02027684       0.00499806      -0.01579182       0.00233716
O        0.77839493      -0.02979873      -0.09288683       0.00000000       0.02810082       0.04588671       1.02027684      15.26029918      -0.18545557       0.00163877       0.00392878
4
Properties=species:S:1:pos:R:3:initial_charges:R:1:bond-order:R:4:forces:R:3 connectivity="_JSON [[0, 1, 0.8259828994495919], [0, 2, 0.0048894218114037295], [0, 3, 0.04436997285047382], [1, 2, 0.0027944636124978893], [1, 3, 0.09654663732312943], [2, 3, 1.0198217752292145]]" energy=2.6984944296977096 pbc="F F F"
H       -2.35376712       0.42148232       0.04469605       0.00000000       1.16397992       0.82598290       0.00488942       0.04436997      -1.85180576       1.66631065       0.09104855
H       -1.25490471      -0.57928955      -0.01433071       0.00000000       0.82598290       0.99976968       0.00279446       0.09654664       2.42852558      -1.40580776      -0.11202949
H        0.61108670       0.92486769      -0.03349010       0.00000000       0.00488942       0.00279446       0.62801122       1.01982178      -0.05821829      -0.04759299      -0.00157696
O        0.77413848      -0.02948738      -0.09213719       0.00000000       0.04436997       0.09654664       1.01982178      15.21942883      -0.53286469      -0.13504721       0.02375779
4
Properties=species:S:1:pos:R:3:initial_charges:R:1:bond-order:R:4:forces:R:3 connectivity="_JSON [[0, 1, 0.3831345410480188], [0, 2, 0.0033642204000022616], [0, 3, 0.035561676077538865], [1, 2, 0.0035973064949807827], [1, 3, 0.23274328018878473], [2, 3, 1.0208517898839897]]" energy=1.3147435106031948 pbc="F F F"
H       -2.45667755       0.51427058       0.04979881       0.00000000       1.59448496       0.38313454       0.00336422       0.03556168      -1.01975293       0.89810636       0.05031189
H       -1.14049359      -0.66581649      -0.01993116       0.00000000       0.38313454       1.27005890       0.00359731       0.23274328       1.51139143      -0.66611480      -0.06672739
H        0.61015178       0.92375389      -0.03383149       0.00000000       0.00336422       0.00359731       0.63303209       1.02085179      -0.05390974      -0.05012170       0.00063541
O        0.76159492      -0.03175272      -0.09120995       0.00000000       0.03556168       0.23274328       1.02085179      15.14391843      -0.34012629      -0.11793633       0.01203461
4
Properties=species:S:1:pos:R:3:initial_charges:R:1:bond-order:R:4:forces:R:3 connectivity="_JSON [[0, 1, 0.1483819823800507], [0, 2, 0.0021735720514060647], [0, 3, 0.022085916287925184], [1, 2, 0.004660876148192801], [1, 3, 0.3853683042149375], [2, 3, 1.021145487181706]]" energy=0.684875787259602 pbc="F F F"
H       -2.55737838       0.60447171       0.05478498       0.00000000       1.82366934       0.14838198       0.00217357       0.02208592      -0.42353602       0.36016433       0.02075043
H       -1.01801317      -0.74515430      -0.02572440       0.00000000       0.14838198       1.30095114       0.00466088       0.38536830       0.95343303      -0.08718133      -0.03841998
H        0.60799267       0.92157471      -0.03405355       0.00000000       0.00217357       0.00466088       0.63758973       1.02114549      -0.06564538      -0.04986442       0.00170744
O        0.74330550      -0.03663068      -0.09022329       0.00000000       0.02208592       0.38536830       1.02114549      15.07015751      -0.31432686      -0.15837289       0.00886432
4
Properties=species:S:1:pos:R:3:initial_charges:R:1:bond-order:R:4:forces:R:3 connectivity="_JSON [[0, 1, 0.05353715652723809], [0, 2, 0.0014984757369220655], [0, 3, 0.01408976453716216], [1, 2, 0.007108723837545592], [1, 3, 0.5991009923103879], [2, 3, 1.017605332334984]]" energy=0.3044101618103905 pbc="F F F"
H       -2.65258818       0.68882246       0.05948856       0.00000000       1.92238659       0.05353716       0.00149848       0.01408976      -0.20668935       0.16846427       0.01032742
H       -0.88095104      -0.80820880      -0.03188347       0.00000000       0.05353716       1.08677259       0.00710872       0.59910099       0.71837662       0.13562295      -0.02556387
H        0.60320752       0.91754018      -0.03413539       0.00000000       0.00149848       0.00710872       0.63797366       1.01760533      -0.08717435      -0.04244510       0.00341319
O        0.71449764      -0.04792967      -0.08906175       0.00000000       0.01408976       0.59910099       1.01760533      14.96698627      -0.27309786      -0.21249212       0.00530918
4
Properties=species:S:1:pos:R:3:initial_charges:R:1:bond-order:R:4:forces:R:3 connectivity="_JSON [[0, 1, 0.01130869374831394], [0, 2, 0.0009139322647926394], [0, 3, 0.0076383633888767195], [1, 2, 0.01325428753825427], [1, 3, 0.9157472749470877], [2, 3, 1.0060157891134662]]" energy=0.0 pbc="F F F"
H       -2.73887153       0.76430580       0.06375877       0.00000000       1.97425955       0.01130869       0.00091393       0.00763836       0.00000000       0.00000000       0.00000000
H       -0.72919247      -0.84751379      -0.03826325       0.00000000       0.01130869       0.65845192       0.01325429       0.91574727       0.00000000       0.00000000       0.00000000
H        0.59384472       0.91167884      -0.03397450       0.00000000       0.00091393       0.01325429       0.62998752       1.00601579       0.00000000       0.00000000       0.00000000
O        0.67460786      -0.07047304      -0.08782663       0.00000000       0.00763836       0.91574727       1.00601579      14.82754433       0.00000000       0.00000000       0.00000000
4
Properties=species:S:1:pos:R:3:initial_charges:R:1:bond-order:R:4:forces:R:3 connectivity="_JSON [[0, 1, 0.9850453744089542], [0, 2, 0.0030959911576910414], [0, 3, 0.00810217934281018], [1, 2, 0.0011581960392878688], [1, 3, 0.028714558060077146], [2, 3, 1.021593049553669]]" energy=8.635781679526406 pbc="F F F"
H       -2.07783336       0.17220359       0.02900938       0.00000000       1.03690869       0.98504537       0.00309599       0.00810218      -6.85068716       6.20850824       0.37214407
H       -1.53162069      -0.33400491       0.00210870       0.00000000       0.98504537       0.95784131       0.00115820       0.02871456       6.81030031      -6.16223271      -0.36318379
H        0.61063487       0.92542201      -0.03084986       0.00000000       0.00309599       0.00115820       0.62867842       1.02159305       0.00364037      -0.00129849      -0.06516280
O        0.78073256      -0.03048517      -0.09567442       0.00000000       0.00810218       0.02871456       1.02159305      15.28115289      -0.00825203      -0.00789218       0.05571551
4
Properties=species:S:1:pos:R:3:initial_charges:R:1:bond-order:R:4:forces:R:3 connectivity="_JSON [[0, 1, 0.9783824078444114], [0, 2, 0.003321506784386323], [0, 3, 0.014812908153383696], [1, 2, 0.0014283668023680831], [1, 3, 0.03226782520160827], [2, 3, 1.020865544309464]]" energy=5.73004699685432 pbc="F F F"
H       -2.14634023       0.23428867       0.03273082       0.00000000       1.03872324       0.97838241       0.00332151       0.01481291      -4.93344505       4.44672053       0.18406276
H       -1.46351769      -0.39562724      -0.00152314       0.00000000       0.97838241       0.95483296       0.00142837       0.03226783       4.90361780      -4.39302740      -0.14761084
H        0.61067127       0.92540903      -0.03150149       0.00000000       0.00332151       0.00142837       0.62781601       1.02086554       0.00485444      -0.00542240       0.00441612
O        0.78065004      -0.03056409      -0.09511726       0.00000000       0.01481291       0.03226783       1.02086554      15.27647068      -0.02109626      -0.01232111      -0.03865586
4
Properties=species:S:1:pos:R:3:initial_charges:R:1:bond-order:R:4:forces:R:3 connectivity="_JSON [[0, 1, 0.9575031283634545], [0, 2, 0.004203872385726199], [0, 3, 0.028323884274726315], [1, 2, 0.002044964068427441], [1, 3, 0.046158961935578856], [2, 3, 1.019563753554144]]" energy=2.9546922859176523 pbc="F F F"
H       -2.25163344       0.32941953       0.03743983       0.00000000       1.05080810       0.95750313       0.00420387       0.02832388      -2.45400533       2.20351582       0.08760040
H       -1.35885417      -0.48980157      -0.00573316       0.00000000       0.95750313       0.94484028       0.00204496       0.04615896       2.46300389      -2.12916207      -0.03838170
H        0.61075411       0.92533503      -0.03188474       0.00000000       0.00420387       0.00204496       0.62653080       1.01956375       0.00232810      -0.00761238       0.00155674
O        0.78034072      -0.03076533      -0.09520962       0.00000000       0.02832388       0.04615896       1.01956375      15.26222369      -0.05171655      -0.03058038      -0.04924568
4
Properties=species:S:1:pos:R:3:initial_charges:R:1:bond-order:R:4:forces:R:3 connectivity="_JSON [[0, 1, 0.8192177374520335], [0, 2, 0.004877449721316172], [0, 3, 0.04368827495283245], [1, 2, 0.002822372562107226], [1, 3, 0.09715256391088217], [2, 3, 1.018427649960457]]" energy=1.4926950029470154 pbc="F F F"
H       -2.35715169       0.42453088       0.04179708       0.00000000       1.17057464       0.81921774       0.00487745       0.04368827      -1.48168501       1.33179179       0.05812708
H       -1.25358023      -0.58310394      -0.00897635       0.00000000       0.81921774       1.00667081       0.00282237       0.09715256       1.66966558      -1.18692793       0.00293720
H        0.61084362       0.92516470      -0.03209747       0.00000000       0.00487745       0.00282237       0.62647640       1.01842765      -0.02237438      -0.01965712      -0.00103784
O        0.77930372      -0.03138991      -0.09607143       0.00000000       0.04368827       0.09715256       1.01842765      15.22390605      -0.16721847      -0.09256090      -0.06026282
4
Properties=species:S:1:pos:R:3:initial_charges:R:1:bond-order:R:4:forces:R:3 connectivity="_JSON [[0, 1, 0.3788643295002091], [0, 2, 0.003328552144919713], [0, 3, 0.033136695907742174], [1, 2, 0.0035495099197092182], [1, 3, 0.2230098662839403], [2, 3, 1.0187477314601]]" energy=0.0 pbc="F F F"
H       -2.46211559       0.51905800       0.04606269       0.00000000       1.60032561       0.37886433       0.00332855       0.03313670       0.00000000       0.00000000       0.00000000
H       -1.14455491      -0.67314513      -0.01111234       0.00000000       0.37886433       1.29051377       0.00354951       0.22300987       0.00000000       0.00000000       0.00000000
H        0.61040124       0.92460700      -0.03226525       0.00000000       0.00332855       0.00354951       0.63041160       1.01874773       0.00000000       0.00000000       0.00000000
O        0.77483922      -0.03389548      -0.09801177       0.00000000       0.03313670       0.22300987       1.01874773      15.15747565       0.00000000       0.00000000       0.00000000
