4
Properties=species:S:1:pos:R:3:initial_charges:R:1:bond-order:R:4 connectivity="_JSON [[0, 1, 0.9879677697036724], [0, 2, 0.002100542987940016], [0, 3, 0.008259368110615173], [1, 2, 0.00046349213039067154], [1, 3, 0.023434699552043768], [2, 3, 1.0148573824890585]]" pbc="F F F"
H       -2.07783336       0.17220359       0.02900938       0.00000000       1.01177741       0.98796777       0.00210054       0.00825937
H       -1.53162069      -0.33400491       0.00210870       0.00000000       0.98796777       0.97846094       0.00046349       0.02343470
H        0.61063487       0.92542201      -0.03084986       0.00000000       0.00210054       0.00046349       0.52197049       1.01485738
O        0.78073256      -0.03048517      -0.09567442       0.00000000       0.00825937       0.02343470       1.01485738      15.41362464
4
Properties=species:S:1:pos:R:3:initial_charges:R:1:bond-order:R:4 connectivity="_JSON [[0, 1, 0.5041934439708027], [0, 2, 0.012393475614435127], [0, 3, 0.19701177077827475], [1, 2, 0.005637374316405337], [1, 3, 0.5447128291797569], [2, 3, 1.0156780312569487]]" pbc="F F F"
H       -1.85193375       0.11285026       0.02243844       0.00000000       1.39666800       0.50419344       0.01239348       0.19701177
H       -0.98112917      -0.12900097      -0.01888177       0.00000000       0.50419344       0.55847253       0.00563737       0.54471283
H        0.39324822       0.85155001      -0.02745482       0.00000000       0.01239348       0.00563737       0.54801215       1.01567803
O        0.22172810      -0.10226369      -0.07150800       0.00000000       0.19701177       0.54471283       1.01567803      14.93759347
4
Properties=species:S:1:pos:R:3:initial_charges:R:1:bond-order:R:4 connectivity="_JSON [[0, 1, 0.015779977598053604], [0, 2, 0.001662290972673105], [0, 3, 0.0063278726557446825], [1, 2, 0.014295954765330363], [1, 3, 1.0200083214026556], [2, 3, 1.021381192092983]]" pbc="F F F"
H       -2.54983436       0.25816794       0.05504220       0.00000000       1.96749933       0.01577998       0.00166229       0.00632787
H       -0.52312637      -0.30216805      -0.04319936       0.00000000       0.01577998       0.52130248       0.01429595       1.02000832
H        0.44218617       0.86774559      -0.02882756       0.00000000       0.00166229       0.01429595       0.54648441       1.02138119
O        0.41268796      -0.09060990      -0.07842143       0.00000000       0.00632787       1.02000832       1.02138119      14.80580256
