3
Properties=species:S:1:pos:R:3:initial_charges:R:1:bond-order:R:3 connectivity="_JSON [[0, 1, 1.9324901217369708], [0, 2, 0.06180254390231672], [1, 2, 0.334068865357033]]" id=rxn_01-r verified=F pbc="F F F"
O        0.48020082       0.00004288      -0.00001204       0.00000000      13.92512720       1.93249012       0.06180254
O       -0.51656372      -0.00035206       0.00008800       0.00000000       1.93249012      13.58170320       0.33406887
H       -1.53689402      -0.00101565      -0.00007487       0.00000000       0.06180254       0.33406887       1.83644654
3
Properties=species:S:1:pos:R:3:initial_charges:R:1:bond-order:R:3 connectivity="_JSON [[0, 1, 1.9427429161826621], [0, 2, 0.054207796579445494], [1, 2, 0.32051300524213816]]" id=rxn_01-r verified=F pbc="F F F"
O        0.47601493       0.00004083      -0.00001202       0.00000000      13.92276688       1.94274292       0.05420780
O       -0.50778120       0.00005178       0.00048772       0.00000000       1.94274292      13.57697944       0.32051301
H       -1.54148889      -0.00141745      -0.00047461       0.00000000       0.05420780       0.32051301       1.86532625
3
Properties=species:S:1:pos:R:3:initial_charges:R:1:bond-order:R:3 connectivity="_JSON [[0, 1, 1.9578652971069634], [0, 2, 0.04229035810070493], [1, 2, 0.2991406961714054]]" id=rxn_01-r verified=F pbc="F F F"
O        0.46851429       0.00003672      -0.00001242       0.00000000      13.92105723       1.95786530       0.04229036
O       -0.49160441       0.00084510       0.00127347       0.00000000       1.95786530      13.57300020       0.29914070
H       -1.55016106      -0.00220665      -0.00125996       0.00000000       0.04229036       0.29914070       1.90734986
3
Properties=species:S:1:pos:R:3:initial_charges:R:1:bond-order:R:3 connectivity="_JSON [[0, 1, 1.9724127003070855], [0, 2, 0.02992835907688777], [1, 2, 0.27570058752996596]]" id=rxn_01-r verified=F pbc="F F F"
O        0.45897096       0.00002928      -0.00001515       0.00000000      13.92239013       1.97241270       0.02992836
O       -0.46991741       0.00201718       0.00243547       0.00000000       1.97241270      13.57538735       0.27570059
H       -1.56229965      -0.00337130      -0.00241925       0.00000000       0.02992836       0.27570059       1.94613922
3
Properties=species:S:1:pos:R:3:initial_charges:R:1:bond-order:R:3 connectivity="_JSON [[0, 1, 1.9838846663963388], [0, 2, 0.01942962277154051], [1, 2, 0.25278580395304834]]" id=rxn_01-r verified=F pbc="F F F"
O        0.44857845       0.00001481      -0.00002449       0.00000000      13.92697734       1.98388467       0.01942962
O       -0.44432701       0.00355496       0.00396143       0.00000000       1.98388467      13.58663076       0.25278580
H       -1.57748693      -0.00489464      -0.00393590       0.00000000       0.01942962       0.25278580       1.97419172
3
Properties=species:S:1:pos:R:3:initial_charges:R:1:bond-order:R:3 connectivity="_JSON [[0, 1, 1.992045890512688], [0, 2, 0.01140016842941394], [1, 2, 0.23053289801037355]]" id=rxn_01-r verified=F pbc="F F F"
O        0.43818950      -0.00001265      -0.00004685       0.00000000      13.93383477       1.99204589       0.01140017
O       -0.41595058       0.00541776       0.00581122       0.00000000       1.99204589      13.60684440       0.23053290
H       -1.59545964      -0.00672997      -0.00576334       0.00000000       0.01140017       0.23053290       1.99136291
3
Properties=species:S:1:pos:R:3:initial_charges:R:1:bond-order:R:3 connectivity="_JSON [[0, 1, 1.997533981480999], [0, 2, 0.005566169997815744], [1, 2, 0.2082292543760041]]" id=rxn_01-r verified=F pbc="F F F"
O        0.42821570      -0.00005962      -0.00008892       0.00000000      13.94201571       1.99753398       0.00556617
O       -0.38547788       0.00752563       0.00790517       0.00000000       1.99753398      13.63486420       0.20822925
H       -1.61594700      -0.00879083      -0.00781520       0.00000000       0.00556617       0.20822925       2.00046128
3
Properties=species:S:1:pos:R:3:initial_charges:R:1:bond-order:R:3 connectivity="_JSON [[0, 1, 2.0010235741310503], [0, 2, 0.0014903171362883312], [1, 2, 0.18537605986749583]]" id=rxn_01-r verified=F pbc="F F F"
O        0.41866736      -0.00013072      -0.00015536       0.00000000      13.95066603       2.00102357       0.00149032
O       -0.35329099       0.00977729       0.01014216       0.00000000       2.00102357      13.66916188       0.18537606
H       -1.63858432      -0.01097108      -0.00998545       0.00000000       0.00149032       0.18537606       2.00439219
3
Properties=species:S:1:pos:R:3:initial_charges:R:1:bond-order:R:3 connectivity="_JSON [[0, 1, 2.0030521489629693], [1, 2, 0.16182615391437363]]" id=rxn_01-r verified=F pbc="F F F"
O        0.40929134      -0.00022692      -0.00024699       0.00000000      13.95930057       2.00305215      -0.00121163
O       -0.31958896       0.01207485       0.01242434       0.00000000       2.00305215      13.70796082       0.16182615
H       -1.66291779      -0.01317104      -0.01217461       0.00000000      -0.00121163       0.16182615       2.00540527
3
Properties=species:S:1:pos:R:3:initial_charges:R:1:bond-order:R:3 connectivity="_JSON [[0, 1, 2.003995233078247], [1, 2, 0.13781192386291358]]" id=rxn_01-r verified=F pbc="F F F"
O        0.39972372      -0.00034498      -0.00036039       0.00000000      13.96766985       2.00399523      -0.00281155
O       -0.28450154       0.01433822       0.01467162       0.00000000       2.00399523      13.74934240       0.13781192
H       -1.68844801      -0.01531287      -0.01430506       0.00000000      -0.00281155       0.13781192       2.00499654
3
Properties=species:S:1:pos:R:3:initial_charges:R:1:bond-order:R:3 connectivity="_JSON [[0, 1, 2.0041132143868006], [1, 2, 0.11393194787909464]]" id=rxn_01-r verified=F pbc="F F F"
O        0.38960529      -0.00047806      -0.00048856       0.00000000      13.97577797       2.00411321      -0.00350982
O       -0.24816242       0.01650698       0.01682363       0.00000000       2.00411321      13.79106179       0.11393195
H       -1.71467214      -0.01734294      -0.01632339       0.00000000      -0.00350982       0.11393195       2.00408955
3
Properties=species:S:1:pos:R:3:initial_charges:R:1:bond-order:R:3:forces:R:3 connectivity="_JSON [[0, 1, 2.0041132143868006], [1, 2, 0.11393194787909464]]" id=rxn_01-r verified=F energy=0.013049726721533275 pbc="F F F"
O        0.38960529      -0.00047806      -0.00048856       0.00000000      13.97577797       2.00411321      -0.00350982      -0.03074607      -0.00036134      -0.00034630
O       -0.24816242       0.01650698       0.01682363       0.00000000       2.00411321      13.79106179       0.11393195       0.09316930       0.00373418       0.00369026
H       -1.71467214      -0.01734294      -0.01632339       0.00000000      -0.00350982       0.11393195       2.00408955      -0.06238442      -0.00333316      -0.00330491
