3
Properties=species:S:1:pos:R:3:initial_charges:R:1:bond-order:R:3 connectivity="_JSON [[0.0, 1.0, 1.2754522423733536], [0.0, 2.0, 0.040002787824713434]]" id=rxn_01-r verified=F pbc="F F F"
O        0.48020082       0.00004288      -0.00001204       0.00000000      14.57404176       1.27545224       0.04000279
O       -0.51656372      -0.00035206       0.00008800       0.00000000       1.27545224      14.41535950      -0.04763254
H       -1.53689402      -0.00101565      -0.00007487       0.00000000       0.04000279      -0.04763254       2.47495375
3
Properties=species:S:1:pos:R:3:initial_charges:R:1:bond-order:R:3 connectivity="_JSON [[0.0, 1.0, 1.2754522423733536], [0.0, 2.0, 0.040002787824713434]]" id=rxn_01-r verified=F pbc="F F F"
O        0.64985117       0.00012830      -0.00000903       0.00000000      14.57404176       1.27545224       0.04000279
O       -0.39692637      -0.00031507       0.00006592       0.00000000       1.27545224      14.41535950      -0.04763254
H       -1.82565742      -0.00113743      -0.00005608       0.00000000       0.04000279      -0.04763254       2.47495375
3
Properties=species:S:1:pos:R:3:initial_charges:R:1:bond-order:R:3 connectivity="_JSON [[0.0, 1.0, 1.2754522423733536], [0.0, 2.0, 0.040002787824713434]]" id=rxn_01-r verified=F pbc="F F F"
O        0.81950152       0.00021371      -0.00000602       0.00000000      14.57404176       1.27545224       0.04000279
O       -0.27728902      -0.00027808       0.00004384       0.00000000       1.27545224      14.41535950      -0.04763254
H       -2.11442081      -0.00125922      -0.00003728       0.00000000       0.04000279      -0.04763254       2.47495375
3
Properties=species:S:1:pos:R:3:initial_charges:R:1:bond-order:R:3 connectivity="_JSON [[0.0, 1.0, 1.2754522423733536], [0.0, 2.0, 0.040002787824713434]]" id=rxn_01-r verified=F pbc="F F F"
O        0.98915186       0.00029913      -0.00000301       0.00000000      14.57404176       1.27545224       0.04000279
O       -0.15765168      -0.00024109       0.00002177       0.00000000       1.27545224      14.41535950      -0.04763254
H       -2.40318421      -0.00138100      -0.00001849       0.00000000       0.04000279      -0.04763254       2.47495375
3
Properties=species:S:1:pos:R:3:initial_charges:R:1:bond-order:R:3 connectivity="_JSON [[0.0, 1.0, 1.8680124454768419], [0.0, 2.0, 0.0008218878477981771], [1.0, 2.0, 0.005488360344490896]]" pbc="F F F"
O        1.15880221       0.00038454       0.00000001       0.00000000      14.12658444       1.86801245       0.00082189
O       -0.03801433      -0.00020410      -0.00000031       0.00000000       1.86801245      14.12738770       0.00548836
H       -2.69194760      -0.00150278       0.00000030       0.00000000       0.00082189       0.00548836       1.99738247
