4
Properties=species:S:1:pos:R:3:bond-order:R:4:forces:R:3 connectivity="_JSON [[0, 1, 4.372331195344631e-06], [0, 2, 3.7579832779974974e-06], [0, 3, 3.3960419716787763e-06], [1, 2, 0.030092743923618492], [1, 3, 0.9328501166748117], [2, 3, 1.314575392133189]]" energy=-4062.6027533098636 pbc="F F F"
H       -1.33476093      -0.00000000      -1.92244453       1.99998486       0.00000437       0.00000376       0.00000340      -0.00055942      -0.00000000      -0.00056820
H        0.47466265       0.00000000       1.78946827       0.00000437       0.65281197       0.03009274       0.93285012      -0.02139038      -0.00000000      -0.02381399
O        1.76322469       0.00000000       0.37507728       0.00000376       0.03009274      14.79609072       1.31457539      -0.02045935      -0.00000000       0.03042849
O        1.51350716      -0.00000000       1.72029053       0.00000340       0.93285012       1.31457539      13.99605289       0.04428327      -0.00000000      -0.00422893
