4
Properties=species:S:1:pos:R:3:bond-order:R:4:forces:R:3 connectivity="_JSON [[0, 1, 0.9999873062005481], [0, 2, 5.264922769981772e-06], [0, 3, 7.363158253677959e-06], [1, 2, 4.339168831593559e-06], [1, 3, 8.293856800276945e-06], [2, 3, 1.9999980659269063]]" energy=-4066.3309333224206 pbc="F F F"
H       -0.42338880      -0.00000000       0.00146855       1.00051209       0.99998731       0.00000526       0.00000736      -0.00255453       0.00000000       0.00042266
H       -0.46780953       0.00000000       0.72744871       0.99998731       0.99950707       0.00000434       0.00000829      -0.00029489      -0.00000000      -0.00123325
O        3.16253261      -0.00000000      -0.01459790       0.00000526       0.00000434      14.00011637       1.99999807      -0.00393812       0.00000000       0.01620165
O        2.93091074       0.00000000       1.23529806       0.00000736       0.00000829       1.99999807      13.99984321       0.00648555      -0.00000000      -0.01537877
